(set-logic ALL)
(declare-fun var0 () String)
(assert (str.in_re var0 (re.++ (re.+ (re.union (str.to_re "0") (str.to_re "1"))) (re.++ (re.union (re.* (str.to_re "222")) (re.* (str.to_re "3"))) (re.++ (re.union (re.+ (str.to_re "44")) (re.+ (str.to_re "55"))) (re.++ (re.+ (re.union (str.to_re "6") (str.to_re "777"))) (re.++ (re.+ (re.+ (str.to_re "8"))) (re.++ (re.+ (re.+ (str.to_re "9"))) (re.++ (re.union (re.union (str.to_re "aaa") (str.to_re "bb")) (re.union (str.to_re "c") (str.to_re "ddd"))) (re.++ (re.union (re.+ (str.to_re "ee")) (re.+ (str.to_re "f"))) (re.++ (re.+ (re.+ (str.to_re "gg"))) (re.+ (re.* (str.to_re "hh"))))))))))))))
(assert (<= 226 (str.len var0)))
(check-sat)